AES/1_3_4/ssaes_r1-20_c3_rw1_e4_f0_k1-20_aes_canon_box_aes_mc_bidirectional/ExperimentMinisat_r10_k3cnf_2011-10-29-152001/Result
WARNING: for repeatability, setting FPU to use double precision
============================[ Problem Statistics ]=============================
|                                                                             |
|  Number of variables:          1236                                         |
|  Number of clauses:            7288                                         |
|  Parse time:                   0.01 s                                       |
|  Eliminated clauses:           0.01 Mb                                      |
|  Simplification time:          0.01 s                                       |
|                                                                             |
=============================[ Search Statistics ]==============================
| Conflicts  |          ORIGINAL         |          LEARNT          | Progress |
|            |    Vars  Clauses Literals |    Limit  Clauses Lit/Cl |          |
================================================================================
|        100 |    1000     6656    20664 |     2440      100     24 |  5.179 % |
|        250 |    1000     6656    20664 |     2684      250     23 |  5.178 % |
|        475 |    1000     6656    20664 |     2953      475     19 |  5.178 % |
|        812 |    1000     6656    20664 |     3248      812     20 |  5.178 % |
|       1318 |    1000     6656    20664 |     3573     1318     19 |  5.179 % |
|       2077 |    1000     6656    20664 |     3930     2077     18 |  5.179 % |
===============================================================================
restarts              : 15
conflicts             : 2632           (13228 /sec)
decisions             : 3062           (0.00 % random) (15389 /sec)
propagations          : 1248749        (6276098 /sec)
conflict literals     : 47059          (59.95 % deleted)
Memory used           : 9.00 MB
CPU time              : 0.198969 s

SATISFIABLE
